 SYSTEM =  qvasp 

INCAR-basic
   PREC   = Normal
   ENCUT  = 400 eV
   NELMIN= 5
   LREAL = AUTO    ## set to Auto if the atomic number > 20

#   ALGO = Fast
   EDIFF  = 1E-6
   ISMEAR = 1
   SIGMA = 0.2

#   LDAU=.TRUE.  ## For LDA + U set
#   LDAUTYPE=2
#   LDAUL=2 -1
#   LDAUU=3  0
#   LDAUJ=0  0

   ISPIN = 1    ## For magnetism set
#  MAGMOM = 3*1
   NCORE = 4     ## Important to reduce calculate time, equal sqrt(cpu cores)

 Ionic Relaxation
   ICHARG = 2
   EDIFFG = 0.01        #force
   NSW    = 300          #max steps for IOM
   IBRION = 2
   POTIM = 0.5
   ISIF   = 2            #suface:2 crystal:3
   PSTRESS= 0
   LCHARG = .FALSE.
   LWAVE  =  F
 
 Symmetry Settings
   ISYM = 0
   SYMPREC = 1E-10


# Use 'qvasp -p2c' to transer format (VESTA or MS)
